solution status: optimal solution found
objective value:                                    0
thingy.ctrl_collect_hole_y                         19 	(obj:0)
thingy.ctrl_collect_hole_z                         20 	(obj:0)
$_14__1_y                                          19 	(obj:0)
$_14__1_z                                          14 	(obj:0)
thingy.collect_pinholes[3].hole_y                   10 	(obj:0)
thingy.collect_pinholes[3].hole_z                   12 	(obj:0)
thingy.collect_pinholes[1].hole_y                   13 	(obj:0)
thingy.collect_pinholes[1].hole_z                   17 	(obj:0)
thingy.flush_collect_hole_y                        10 	(obj:0)
thingy.flush_collect_hole_z                        11 	(obj:0)
thingy.collect_pinholes[0].hole_y                   20 	(obj:0)
thingy.collect_pinholes[0].hole_z                   20 	(obj:0)
thingy.collect_pinholes[2].hole_y                    9 	(obj:0)
thingy.collect_pinholes[2].hole_z                   13 	(obj:0)
$_11__1_y                                          18 	(obj:0)
$_11__1_z                                          11 	(obj:0)
$_12__1_y                                          18 	(obj:0)
$_12__1_z                                          13 	(obj:0)
$_16__1_y                                          16 	(obj:0)
$_16__1_z                                          22 	(obj:0)
$_13__1_y                                          12 	(obj:0)
$_13__1_z                                          22 	(obj:0)
$_15__1_y                                          20 	(obj:0)
$_15__1_z                                          21 	(obj:0)
